
<<< setup

Version identifier: 22.1.1.0 | 2022-11-27 | 9160aff4d
Tried aggregator 1 time.
LP Presolve eliminated 103 rows and 72 columns.
Reduced LP has 2 rows, 17 columns, and 17 nonzeros.
Presolve time = 0.00 sec. (0.04 ticks)

Iteration log . . .
Iteration:     1   Dual objective     =          1154.961558
main returns 0

<<< main


<<< done

